[runlim] version:		2.0.0rc12
[runlim] host:			ap-Precision-7550
[runlim] time limit:		311040000 seconds
[runlim] real time limit:	600 seconds
[runlim] space limit:		14000 MB
[runlim] argv[0]:		python3
[runlim] argv[1]:		cp_no.py
[runlim] argv[2]:		scen01
[runlim] start:			Wed Mar 25 05:14:12 2026
[runlim] child:			70368
--- Building model for 916 variables ---
--- Solving with CP Optimizer (Integer Mode) ---
 ! --------------------------------------------------- CP Optimizer 22.1.1.0 --
 ! Minimization problem - 916 variables, 5548 constraints
 ! LogVerbosity         = Terse
 ! Initial process time : 0.04s (0.04s extraction + 0.00s propagation)
 !  . Log search space  : 4834.9 (before), 4834.9 (after)
 !  . Memory usage      : 2.9 MB (before), 2.9 MB (after)
 ! Using parallel search with 12 workers.
 ! ----------------------------------------------------------------------------
 !          Best Branches  Non-fixed    W       Branch decision
                        0        916                 -
 + New bound is 0
                        0        916                 -
 + New bound is 1
                        2        916    1   F   142 != node_840
 + New bound is 2
 *            38      498  0.18s        1      (gap is 94.74%)
 *            34      494  0.18s        4      (gap is 94.12%)
 *            32      486  0.18s       11      (gap is 93.75%)
 *            30     2651  0.43s        8      (gap is 93.33%)
 *            28     4142  0.68s       10      (gap is 92.86%)
 *            26     6688  0.88s        5      (gap is 92.31%)
 *            24     8232  1.08s        5      (gap is 91.67%)
 *            22    12334  1.42s        8      (gap is 90.91%)
 *            20    15058  1.69s       10      (gap is 90.00%)
 *            18    23486  2.48s       11      (gap is 88.89%)
 *            16    35199  6.25s        4      (gap is 87.50%)
[runlim] sample:		64.21 time, 10.01 real, 294 MB, 8.34 load
[runlim] sample:		147.01 time, 20.01 real, 313 MB, 8.17 load
              16     192k        812    7   F   408 != node_251
 + New bound is 3 (gap is 81.25%)
              16     203k        798    9   F   240 != node_251
 + New bound is 4 (gap is 75.00%)
              16     203k        798    9   F   380 != node_251
 + New bound is 5 (gap is 68.75%)
[runlim] sample:		227.11 time, 30.01 real, 321 MB, 7.22 load
[runlim] sample:		312.86 time, 40.01 real, 325 MB, 7.88 load
[runlim] sample:		390.74 time, 50.02 real, 327 MB, 7.70 load
[runlim] sample:		470.32 time, 60.01 real, 329 MB, 7.76 load
[runlim] sample:		547.18 time, 70.01 real, 331 MB, 8.42 load
[runlim] sample:		630.36 time, 80.02 real, 333 MB, 8.74 load
[runlim] sample:		713.56 time, 90.01 real, 335 MB, 7.78 load
[runlim] sample:		799.88 time, 100.01 real, 337 MB, 7.18 load
[runlim] sample:		877.47 time, 110.01 real, 338 MB, 6.23 load
[runlim] sample:		956.84 time, 120.01 real, 339 MB, 6.31 load
[runlim] sample:		1038.97 time, 130.02 real, 340 MB, 7.26 load
[runlim] sample:		1122.89 time, 140.02 real, 341 MB, 7.12 load
[runlim] sample:		1202.47 time, 150.01 real, 343 MB, 8.11 load
[runlim] sample:		1286.33 time, 160.01 real, 343 MB, 8.05 load
[runlim] sample:		1365.55 time, 170.01 real, 344 MB, 8.67 load
[runlim] sample:		1444.89 time, 180.01 real, 345 MB, 8.09 load
[runlim] sample:		1521.95 time, 190.02 real, 345 MB, 8.45 load
[runlim] sample:		1607.31 time, 200.01 real, 347 MB, 8.70 load
[runlim] sample:		1688.21 time, 210.01 real, 347 MB, 8.47 load
[runlim] sample:		1765.34 time, 220.01 real, 347 MB, 7.32 load
[runlim] sample:		1849.08 time, 230.01 real, 348 MB, 8.12 load
[runlim] sample:		1933.94 time, 240.01 real, 349 MB, 8.15 load
[runlim] sample:		2017.16 time, 250.01 real, 349 MB, 7.36 load
[runlim] sample:		2097.84 time, 260.02 real, 350 MB, 7.17 load
[runlim] sample:		2184.00 time, 270.01 real, 350 MB, 7.99 load
[runlim] sample:		2272.40 time, 280.01 real, 350 MB, 7.88 load
[runlim] sample:		2359.55 time, 290.01 real, 351 MB, 8.52 load
[runlim] sample:		2433.67 time, 300.01 real, 351 MB, 7.98 load
[runlim] sample:		2508.89 time, 310.01 real, 351 MB, 7.96 load
[runlim] sample:		2590.19 time, 320.01 real, 351 MB, 7.64 load
[runlim] sample:		2672.77 time, 330.01 real, 352 MB, 7.50 load
[runlim] sample:		2750.30 time, 340.01 real, 352 MB, 7.38 load
[runlim] sample:		2836.50 time, 350.01 real, 353 MB, 7.28 load
[runlim] sample:		2915.20 time, 360.01 real, 353 MB, 7.93 load
[runlim] sample:		3003.24 time, 370.01 real, 353 MB, 7.31 load
[runlim] sample:		3081.66 time, 380.02 real, 354 MB, 7.15 load
[runlim] sample:		3161.72 time, 390.02 real, 354 MB, 7.09 load
[runlim] sample:		3241.97 time, 400.01 real, 355 MB, 7.29 load
[runlim] sample:		3328.62 time, 410.01 real, 355 MB, 8.02 load
[runlim] sample:		3416.52 time, 420.02 real, 355 MB, 8.54 load
[runlim] sample:		3498.91 time, 430.01 real, 356 MB, 9.07 load
[runlim] sample:		3584.89 time, 440.01 real, 356 MB, 9.37 load
[runlim] sample:		3664.91 time, 450.01 real, 356 MB, 8.96 load
[runlim] sample:		3743.60 time, 460.01 real, 357 MB, 8.91 load
[runlim] sample:		3828.14 time, 470.01 real, 357 MB, 9.31 load
[runlim] sample:		3911.29 time, 480.02 real, 357 MB, 9.06 load
[runlim] sample:		4000.40 time, 490.01 real, 357 MB, 8.70 load
[runlim] sample:		4079.42 time, 500.01 real, 357 MB, 8.84 load
[runlim] sample:		4164.57 time, 510.01 real, 358 MB, 8.85 load
[runlim] sample:		4251.41 time, 520.01 real, 358 MB, 8.03 load
[runlim] sample:		4328.92 time, 530.02 real, 358 MB, 8.27 load
[runlim] sample:		4415.66 time, 540.01 real, 359 MB, 7.97 load
[runlim] sample:		4501.93 time, 550.01 real, 359 MB, 7.19 load
[runlim] sample:		4587.85 time, 560.02 real, 360 MB, 7.70 load
[runlim] sample:		4666.85 time, 570.02 real, 360 MB, 6.99 load
[runlim] sample:		4754.31 time, 580.01 real, 361 MB, 7.60 load
[runlim] sample:		4835.31 time, 590.01 real, 363 MB, 8.28 load
[runlim] sample:		4917.48 time, 600.01 real, 364 MB, 8.48 load
[runlim] end:			Wed Mar 25 05:24:13 2026
[runlim] status:		out of time
[runlim] result:		2
[runlim] children:		2
[runlim] processes:		3
[runlim] real:			601.06 seconds
[runlim] time:			4917.48 seconds
[runlim] space:			364 MB
[runlim] load:			9.37 maximum
[runlim] samples:		6000
